26
0 0
14 7
28
22
0 7
16 13
26
21
0 13
12 17
27
21
16 0
24 17
25
20
0 17
15 21
22
18
15 17
24 35
24
19
0 21
12 29
23
18
0 29
4 52
20
17
4 35
19 40
21
17
4 40
17 45
18
15
19 35
22 52
19
16
4 45
11 59
17
14
11 45
17 64
15
13
22 35
25 60
16
13
0 52
4 71
14
12
17 60
25 77
12
11
4 59
10 73
13
11
0 73
9 86
10
10
10 64
12 89
11
10
12 64
17 82
9
9
12 82
24 87
8
8
0 86
8 95
7
7
8 89
23 96
5
6
0 95
5 109
6
6
5 96
15 112
4
5
15 96
20 110
2
3
23 87
26 113
1
2
15 110
23 115
0
1
0 112
10 116
3
4
